JulietBench/Juliet_Based_Patch_Bench/linux/CWE-190-Integer-Overflow-or-Wraparound/CVE_2017_7542_6399f1fae4ec29fab5ec76070435555e256ca3a6/Resultip6_find_1stfragopt_Snippet2_patch1EQ.smt2
; benchmark generated from python API
(set-info :status unknown)
(declare-fun rsi () (_ BitVec 64))
(declare-fun rdi () (_ BitVec 64))
(declare-fun R () (_ BitVec 32))
(assert
 (let ((?x12 ((_ extract 7 0) rsi)))
 (let ((?x41 (concat (_ bv0 21) ?x12)))
 (let ((?x42 (bvadd (_ bv1 29) ?x41)))
 (let ((?x43 (concat ?x42 (_ bv0 3))))
 (let ((?x6 ((_ extract 31 0) rdi)))
 (let ((?x44 (bvadd ?x6 ?x43)))
 (let (($x170 (= R ?x44)))
 (let (($x46 (bvule ?x44 (_ bv65534 32))))
 (let (($x348 (and $x46 $x170)))
 (let (($x172 (= (_ bv4294967274 32) R)))
 (let (($x92 (bvugt ?x44 (_ bv65534 32))))
 (let (($x173 (and $x92 $x172)))
 (let (($x322 (or $x173 $x348)))
 (and $x170 $x322)))))))))))))))
(check-sat)
